c  **** 1,3-WPM transformed formula ****
p wcnf 40 60 31
c ===== Hard Clauses =====
31 -1 -2 11 0
31 1 2 12 0
31 -2 -3 13 0
31 2 3 14 0
31 -3 -4 15 0
31 3 4 16 0
31 -4 -5 17 0
31 4 5 18 0
31 -5 -1 19 0
31 5 1 20 0
31 -1 -6 21 0
31 1 6 22 0
31 -2 -7 23 0
31 2 7 24 0
31 -3 -8 25 0
31 3 8 26 0
31 -4 -9 27 0
31 4 9 28 0
31 -5 -10 29 0
31 5 10 30 0
31 -6 -8 31 0
31 6 8 32 0
31 -6 -9 33 0
31 6 9 34 0
31 -7 -9 35 0
31 7 9 36 0
31 -7 -10 37 0
31 7 10 38 0
31 -8 -10 39 0
31 8 10 40 0
c ===== Soft Clauses (Sum weights: 30) =====
1 -11 0
1 -12 0
1 -13 0
1 -14 0
1 -15 0
1 -16 0
1 -17 0
1 -18 0
1 -19 0
1 -20 0
1 -21 0
1 -22 0
1 -23 0
1 -24 0
1 -25 0
1 -26 0
1 -27 0
1 -28 0
1 -29 0
1 -30 0
1 -31 0
1 -32 0
1 -33 0
1 -34 0
1 -35 0
1 -36 0
1 -37 0
1 -38 0
1 -39 0
1 -40 0
